Gurobi 12.0.3:   lim:time = 14400

  mip:bestbound = 1

Set parameter LogToConsole to value 1

  tech:outlev = 1

Set parameter Cuts to value 3

  cut:cuts = 3

Set parameter Presolve to value 2

  pre:solve = 2

Set parameter MIPFocus to value 2

  mip:focus = 2

Set parameter Symmetry to value 2

  mip:symmetry = 2

Set parameter InfUnbdInfo to value 1

Gurobi Optimizer version 12.0.3 build v12.0.3rc0 (win64 - Windows 11+.0 (26200.2))



CPU model: 13th Gen Intel(R) Core(TM) i7-13700K, instruction set [SSE2|AVX|AVX2]

Thread count: 16 physical cores, 24 logical processors, using up to 24 threads



Non-default parameters:

TimeLimit  14400

MIPFocus  2

Symmetry  2

Cuts  3

InfUnbdInfo  1

Presolve  2



Optimize a model with 469 rows, 975 columns and 5593 nonzeros

Model fingerprint: 0xafc0b206

Model has 4 quadratic constraints

Variable types: 39 continuous, 936 integer (0 binary)

Coefficient statistics:

  Matrix range     [1e+00, 1e+05]

  QMatrix range    [1e+00, 1e+00]

  QLMatrix range   [1e+01, 1e+01]

  Objective range  [4e+00, 1e+02]

  Bounds range     [1e+00, 1e+02]

  RHS range        [1e+00, 1e+05]

  QRHS range       [1e+02, 1e+02]

Presolve removed 53 rows and 95 columns

Presolve time: 0.13s

Presolved: 1060 rows, 1520 columns, 8838 nonzeros

Variable types: 15 continuous, 1505 integer (1173 binary)

Root relaxation presolve removed 19 rows and 0 columns

Root relaxation presolved: 712 rows, 1192 columns, 12241 nonzeros





Root relaxation: objective 1.580955e+02, 79 iterations, 0.01 seconds (0.01 work units)



    Nodes    |    Current Node    |     Objective Bounds      |     Work

 Expl Unexpl |  Obj  Depth IntInf | Incumbent    BestBd   Gap | It/Node Time



     0     0  158.09552    0   34          -  158.09552      -     -    0s

H    0     0                     753.5300000  158.09552  79.0%     -    0s

H    0     0                     590.1900000  158.09552  73.2%     -    0s

     0     0  211.99500    0   58  590.19000  211.99500  64.1%     -    0s

     0     0  212.89692    0   27  590.19000  212.89692  63.9%     -    0s

     0     0  212.89692    0   57  590.19000  212.89692  63.9%     -    0s

     0     0  212.89692    0   47  590.19000  212.89692  63.9%     -    0s

     0     0  212.98000    0   47  590.19000  212.98000  63.9%     -    0s

     0     0  212.98000    0   45  590.19000  212.98000  63.9%     -    0s

H    0     0                     524.3600000  212.98082  59.4%     -    0s

H    0     0                     451.6600000  212.98082  52.8%     -    0s

H    0     0                     451.3600000  212.98082  52.8%     -    0s

H    0     0                     411.7600000  212.98082  48.3%     -    0s

H    0     0                     406.7300000  212.98082  47.6%     -    0s

     0     0  212.98082    0   45  406.73000  212.98082  47.6%     -    0s

     0     0  212.98082    0   45  406.73000  212.98082  47.6%     -    0s

H    0     0                     398.1400000  212.98082  46.5%     -    0s

     0     0  214.47013    0   52  398.14000  214.47013  46.1%     -    0s

     0     0  215.09727    0   52  398.14000  215.09727  46.0%     -    0s

     0     0  217.57750    0   37  398.14000  217.57750  45.4%     -    0s

H    0     0                     385.8600000  217.57750  43.6%     -    0s

     0     0  217.57750    0   57  385.86000  217.57750  43.6%     -    0s

H    0     0                     383.9500000  217.96004  43.2%     -    1s

     0     0  217.96004    0   44  383.95000  217.96004  43.2%     -    1s

     0     0  217.96004    0   44  383.95000  217.96004  43.2%     -    1s

     0     2  217.96004    0   44  383.95000  217.96004  43.2%     -    1s

H   37    48                     376.7300000  217.97051  42.1%  19.9    1s

H  126   136                     362.6000000  217.97051  39.9%  21.5    1s

H  567   548                     341.7800000  217.97051  36.2%  14.3    1s

  3460  1933  247.72931   15  112  341.78000  244.85026  28.4%  14.7    5s

 10071  3020  295.87500   20   28  341.78000  260.60066  23.8%  18.6   10s

 32932  9543  325.86614   21   38  341.78000  271.97222  20.4%  18.5   15s

 49638 12779  293.77488   35   48  341.78000  276.56574  19.1%  18.9   20s

 63041 15158  327.15434   35   41  341.78000  279.81847  18.1%  18.9   25s

 78300 16746  330.09645   40   46  341.78000  283.14751  17.2%  19.0   30s

 93839 18004     cutoff   42       341.78000  286.12000  16.3%  19.1   35s

 111678 18734  318.30503   38   27  341.78000  289.71340  15.2%  19.2   40s

 133338 18259 infeasible   32       341.78000  294.48000  13.8%  19.3   45s

 148861 17203 infeasible   30       341.78000  298.70333  12.6%  19.4   50s

 165669 16133  309.56885   34   41  341.78000  303.06685  11.3%  19.4   55s

 181721 14120  308.78282   26   50  341.78000  307.49125  10.0%  19.3   60s

 198220 11496  314.45407   39   50  341.78000  312.59965  8.54%  19.1   65s

 217286  6962  335.85110   45   61  341.78000  320.20000  6.31%  18.7   70s

 233968   301  335.62859   37   30  341.78000  331.10083  3.12%  18.3   75s



Cutting planes:

  Learned: 19

  Gomory: 17

  Lift-and-project: 62

  Cover: 133

  Implied bound: 157

  Projected implied bound: 21

  Clique: 82

  MIR: 103

  Mixing: 8

  StrongCG: 29

  Flow cover: 333

  GUB cover: 7

  Inf proof: 71

  Zero half: 426

  RLT: 79

  Relax-and-lift: 222



Explored 236973 nodes (4312668 simplex iterations) in 75.71 seconds (40.05 work units)

Thread count was 24 (of 24 available processors)



Solution count 10: 341.78 341.78 362.6 ... 451.36



Optimal solution found (tolerance 1.00e-04)

Best objective 3.417800000000e+02, best bound 3.417800000000e+02, gap 0.0000%



AMPL MP initial flat model has 975 variables (0 integer, 936 binary);

Objectives: 1 linear; 

Constraints:  469 linear; 4 quadratic;



AMPL MP final model has 975 variables (0 integer, 936 binary);

Objectives: 1 linear; 

Constraints:  469 linear; 4 quadratic;





-----RESULTS INFO-----
running_time:  75.813
TC.best_bound:  341.78
TC:  341.78000000000003
MIP Gap (%):  1.6631581385923112e-14
=== Vehicle Routes ===
Vehicle 1: 0 → 3
Vehicle 1: 1 → 21
Vehicle 1: 2 → 1
Vehicle 1: 3 → 18
Vehicle 1: 18 → 2
Vehicle 2: 0 → 19
Vehicle 2: 15 → 17
Vehicle 2: 17 → 21
Vehicle 2: 19 → 15
Vehicle 3: 0 → 21
Vehicle 4: 0 → 21

=== Full Vehicle Routes ===
Vehicle 1: 0 → 3 → 18 → 2 → 1 → 0 (63<100)
Vehicle 2: 0 → 19 → 15 → 17 → 0 (97<100)
Vehicle 3: 0 → 0 (0<100)
Vehicle 4: 0 → 0 (0<100)
Arc used by MRT line: y variables:
Customer assigment to PL: u variables:
4 18
5 19
6 17
7 18
8 15
9 19
10 19
11 15
12 19
13 17
Node is served by regular vehicle: g variables:
1
2
3
15
17
18
19
Customer assigment to Home delivery: gm variables:
1
2
3
Node total demands: ntd variables:
1 13 1
2 12 1
3 13 1
9 0 0
10 0 0
11 0 0
12 0 0
13 0 0
20 0 0
14 0 0
15 26 1
16 0 0
17 19 1
18 25 1
19 52 1
Customer's demand delivered to PL: l variables:
4
5
6
7
8
9
10
11
12
13
Lockers load <= capacity:
0 <= 71
0 <= 74
26 <= 98
0 <= 84
19 <= 82
25 <= 93
52 <= 73
